
Gurobi 7.0.1 (win64) logging started 01/26/18 12:35:19

Set parameter TimeLimit to value 3600
Set parameter Threads to value 4

Gurobi Optimizer version 7.0.1 build v7.0.1rc0 (win64)
Copyright (c) 2016, Gurobi Optimization, Inc.

Read LP format model from file waterstop_5_180114.lp
Reading time = 0.23 seconds
Objective: 47832 rows, 16866 columns, 185880 nonzeros
Optimize a model with 47832 rows, 16866 columns and 185880 nonzeros
Variable types: 108 continuous, 16758 integer (0 binary)
Coefficient statistics:
  Matrix range     [3e-01, 1e+02]
  Objective range  [1e+00, 1e+00]
  Bounds range     [1e+00, 1e+00]
  RHS range        [1e+00, 1e+02]
Presolve removed 21865 rows and 3451 columns
Presolve time: 1.51s
Presolved: 25967 rows, 13415 columns, 104238 nonzeros
Variable types: 66 continuous, 13349 integer (13349 binary)

Root relaxation: objective 0.000000e+00, 5792 iterations, 1.66 seconds
Total elapsed time = 5.74s
Total elapsed time = 10.34s

    Nodes    |    Current Node    |     Objective Bounds      |     Work
 Expl Unexpl |  Obj  Depth IntInf | Incumbent    BestBd   Gap | It/Node Time

     0     0    0.00000    0  123          -    0.00000      -     -   10s
     0     0    0.00000    0  236          -    0.00000      -     -   13s
     0     0    0.00000    0  275          -    0.00000      -     -   16s
     0     0    0.00000    0  317          -    0.00000      -     -   18s
     0     0    0.00000    0  114          -    0.00000      -     -   30s
     0     0    0.00000    0  105          -    0.00000      -     -   44s
     0     0    0.00000    0   92          -    0.00000      -     -   55s
     0     0    0.00000    0  102          -    0.00000      -     -   55s
     0     0    0.00000    0  118          -    0.00000      -     -   65s
     0     0    0.00000    0  114          -    0.00000      -     -   65s
H    0     0                      33.2121212    0.00000   100%     -   74s
     0     0    0.00000    0   65   33.21212    0.00000   100%     -   74s
     0     0    0.00000    0   97   33.21212    0.00000   100%     -   76s
     0     0    0.00000    0   89   33.21212    0.00000   100%     -   82s
     0     0    0.00000    0   87   33.21212    0.00000   100%     -   89s
     0     0    0.00000    0   87   33.21212    0.00000   100%     -   90s
     0     2    0.00000    0   87   33.21212    0.00000   100%     -   96s
     7    12    0.00000    3   97   33.21212    0.00000   100%  2024  101s
    23    25    0.00000    6  111   33.21212    0.00000   100%  1456  105s
    33    32   18.03030    7  165   33.21212    0.00000   100%  1385  110s
    60    55    0.00000   14  203   33.21212    0.00000   100%  1117  116s
    68    66    0.00000   15  182   33.21212    0.00000   100%  1093  120s
   104    99    0.18452   21  199   33.21212    0.00000   100%  1099  126s
   146   128    5.64626   30  111   33.21212    0.00000   100%  1015  130s
   228   186   18.03030   42  107   33.21212    0.00000   100%   917  136s
   270   224   24.64646   54  205   33.21212    0.00000   100%   927  143s
   294   240   24.59440   57  232   33.21212    0.00000   100%   938  146s
   328   270   18.90909   62  136   33.21212    0.00000   100%   942  152s
   372   297   18.90909   68  114   33.21212    0.00000   100%   906  173s
   410   331   18.90909   82  196   33.21212    0.00000   100%   884  178s
   479   389   18.90909  100  143   33.21212    0.00000   100%   850  184s
   587   478   18.03030   10   95   33.21212    0.00000   100%   764  190s
   667   544   20.63636   31  106   33.21212    0.00000   100%   750  197s
*  750   572             109      32.7878788    0.00000   100%   715  197s
   800   646   20.63636   61   75   32.78788    0.00000   100%   711  203s
   906   710   20.63636   82  119   32.78788    0.00000   100%   689  209s
H  974   737                      32.2424242    0.00000   100%   674  209s
  1008   765   21.51515  108  204   32.24242    0.00000   100%   667  216s
  1092   839   28.39016   68   87   32.24242    0.00000   100%   662  233s
H 1093   798                      27.7575758    0.00000   100%   661  246s
  1095   799   27.67677   14  133   27.75758    0.00000   100%   660  297s
  1097   800   27.75758   77   95   27.75758    0.00000   100%   659  349s
  1098   801   25.15229   30  189   27.75758    0.00000   100%   658  354s
H 1098   760                      26.6363636    0.00000   100%   658  392s
H 1098   722                      21.6363636    0.00000   100%   658  392s
  1099   723   16.09790   12  236   21.63636    0.00000   100%   658  395s
H 1100   687                      18.9090909    0.00000   100%   657  457s
  1103   689   18.90909   81  194   18.90909    5.00000  73.6%   655  501s
  1105   691   18.90909  104  303   18.90909    5.00000  73.6%   654  544s
  1106   691   18.90909   37  416   18.90909    5.00000  73.6%   654  548s
  1107   692   18.90909  139  401   18.90909    5.00000  73.6%   653  576s
  1109   695   18.90909   43   87   18.90909    5.00000  73.6%   943  654s
  1111   696   18.90909   37   96   18.90909    5.00000  73.6%   941  671s
  1112   697   18.90909   68  222   18.90909    5.00000  73.6%   940  712s
  1113   698    5.00000   12  173   18.90909    5.00000  73.6%   940  716s
  1114   698    5.00000    9   85   18.90909    5.00000  73.6%   939  763s
  1115   699   18.90909   14  115   18.90909    5.00000  73.6%   938  765s
  1116   700   18.90909   37  303   18.90909    5.00000  73.6%   937  816s
H 1117   664                      14.0000000    5.00000  64.3%   936  878s
  1118   665   14.00000   30   70   14.00000    5.00000  64.3%   935  880s
  1120   666    5.00000   13   99   14.00000    5.00000  64.3%   934  919s
  1122   669    5.00000   45   87   14.00000    5.00000  64.3%  1164  930s
  1124   670    5.00000   37   95   14.00000    5.00000  64.3%  1162  946s
  1125   671   14.00000  104   76   14.00000    5.00000  64.3%  1161 1017s
  1127   674   14.00000  139   87   14.00000    5.00000  64.3%  1261 1044s
  1129   675   14.00000   43  112   14.00000    5.00000  64.3%  1258 1059s
  1130   676   14.00000   57  220   14.00000    5.00000  64.3%  1257 1101s
  1131   677   14.00000   37  216   14.00000    5.00000  64.3%  1256 1106s
  1132   677   14.00000   68  138   14.00000   13.03030  6.93%  1255 1164s
  1133   678   13.03030   12  107   14.00000   13.03030  6.93%  1254 1248s
  1134   679   13.03030    9  146   14.00000   13.03030  6.93%  1253 1251s
  1135   679   14.00000   14  243   14.00000   13.03030  6.93%  1252 1274s
  1137   682   14.00000   77   87   14.00000   13.03030  6.93%  1450 1316s
  1139   683   14.00000   12   66   14.00000   13.03030  6.93%  1448 1325s
  1140   684   13.03030   13   99   14.00000   13.03030  6.93%  1447 1352s
  1142   687   13.03030   45   87   14.00000   13.03030  6.93%  1498 1363s
  1144   688   13.03030   37   89   14.00000   13.03030  6.93%  1496 1379s
  1145   689   14.00000  104  111   14.00000   13.03030  6.93%  1494 1414s
  1147   692   14.00000  139   87   14.00000   13.03030  6.93%  1557 1436s
  1149   693   14.00000   43   92   14.00000   13.03030  6.93%  1555 1449s
  1150   694   14.00000   57   63   14.00000   13.03030  6.93%  1553 1506s
H 1150   659                      13.9090909   13.03030  6.32%  1553 1531s
  1151   660   13.90909   37  126   13.90909   13.03030  6.32%  1552 1540s

Cutting planes:
  Gomory: 1
  Cover: 1
  Clique: 14
  MIR: 1
  Flow cover: 3
  GUB cover: 1

Explored 1152 nodes (2095996 simplex iterations) in 1540.24 seconds
Thread count was 4 (of 20 available processors)

Solution count 9: 13.9091 14 18.9091 ... 33.2121
Pool objective bound 13.9091

Optimal solution found (tolerance 1.00e-04)
Best objective 1.390909090909e+01, best bound 1.390909090909e+01, gap 0.0000%

Wrote result file 'waterstop_5_180114.sol'

